GLPSOL--GLPK LP/MIP Solver 5.0
Parameter(s) specified in the command line:
 --cpxlp --first inputs/new_tr/order/triang7_0_up_right_input.lp -o solutions/new_tr/triang7_0_up_right_input.lp
Reading problem data from 'inputs/new_tr/order/triang7_0_up_right_input.lp'...
inputs/new_tr/order/triang7_0_up_right_input.lp:4307: warning: lower bound of variable 'm_27_27' redefined
inputs/new_tr/order/triang7_0_up_right_input.lp:4307: warning: upper bound of variable 'm_27_27' redefined
3991 rows, 1597 columns, 11607 non-zeros
1597 integer variables, 1288 of which are binary
5875 lines were read
GLPK Integer Optimizer 5.0
3991 rows, 1597 columns, 11607 non-zeros
1597 integer variables, 1288 of which are binary
Preprocessing...
182 hidden packing inequaliti(es) were detected
22 hidden covering inequaliti(es) were detected
395 constraint coefficient(s) were reduced
2268 rows, 842 columns, 6148 non-zeros
842 integer variables, 814 of which are binary
Scaling...
 A: min|aij| =  1.000e+00  max|aij| =  9.900e+01  ratio =  9.900e+01
GM: min|aij| =  4.387e-01  max|aij| =  2.280e+00  ratio =  5.196e+00
EQ: min|aij| =  1.925e-01  max|aij| =  1.000e+00  ratio =  5.196e+00
2N: min|aij| =  1.250e-01  max|aij| =  1.438e+00  ratio =  1.150e+01
Constructing initial basis...
Size of triangular part is 2072
Solving LP relaxation...
GLPK Simplex Optimizer 5.0
2268 rows, 842 columns, 6148 non-zeros
      0: obj =   2.320000000e+02 inf =   3.060e+02 (161)
    561: obj =   4.281013446e+02 inf =   1.230e-13 (0) 4
*   937: obj =   3.050000565e+02 inf =   1.297e-13 (0) 3
OPTIMAL LP SOLUTION FOUND
Integer optimization begins...
Long-step dual simplex will be used
+   937: mip =     not found yet >=              -inf        (1; 0)
+  2691: >>>>>   4.250000000e+02 >=   3.060000000e+02  28.0% (17; 1)
+  6631: >>>>>   4.130000000e+02 >=   3.060000000e+02  25.9% (57; 14)
+ 13894: >>>>>   3.650000000e+02 >=   3.060000000e+02  16.2% (82; 33)
+ 18154: >>>>>   3.620000000e+02 >=   3.060000000e+02  15.5% (63; 101)
+ 54036: mip =   3.620000000e+02 >=   3.060000000e+02  15.5% (166; 167)
+ 89825: mip =   3.620000000e+02 >=   3.070000000e+02  15.2% (311; 253)
+128115: mip =   3.620000000e+02 >=   3.080000000e+02  14.9% (407; 328)
+166085: mip =   3.620000000e+02 >=   3.090000000e+02  14.6% (424; 448)
+203273: mip =   3.620000000e+02 >=   3.140000000e+02  13.3% (416; 602)
+240173: mip =   3.620000000e+02 >=   3.170000000e+02  12.4% (486; 695)
+277415: mip =   3.620000000e+02 >=   3.240000000e+02  10.5% (542; 788)
+314647: mip =   3.620000000e+02 >=   3.290000000e+02   9.1% (603; 951)
+352211: mip =   3.620000000e+02 >=   3.290000000e+02   9.1% (892; 1100)
+391114: mip =   3.620000000e+02 >=   3.300000000e+02   8.8% (1190; 1246)
+430209: mip =   3.620000000e+02 >=   3.310000000e+02   8.6% (1648; 1331)
Time used: 60.1 secs.  Memory used: 14.6 Mb.
+471073: mip =   3.620000000e+02 >=   3.310000000e+02   8.6% (1879; 1550)
+512691: mip =   3.620000000e+02 >=   3.310000000e+02   8.6% (2076; 1681)
+554464: mip =   3.620000000e+02 >=   3.310000000e+02   8.6% (2307; 1807)
+596444: mip =   3.620000000e+02 >=   3.310000000e+02   8.6% (2528; 1925)
+637605: mip =   3.620000000e+02 >=   3.310000000e+02   8.6% (2746; 2038)
+678046: mip =   3.620000000e+02 >=   3.310000000e+02   8.6% (2952; 2155)
+719353: mip =   3.620000000e+02 >=   3.310000000e+02   8.6% (3195; 2269)
+759869: mip =   3.620000000e+02 >=   3.310000000e+02   8.6% (3370; 2393)
+801367: mip =   3.620000000e+02 >=   3.310000000e+02   8.6% (3600; 2504)
+843240: mip =   3.620000000e+02 >=   3.310000000e+02   8.6% (3773; 2618)
+882480: mip =   3.620000000e+02 >=   3.310000000e+02   8.6% (4031; 2788)
+922829: mip =   3.620000000e+02 >=   3.310000000e+02   8.6% (4229; 2938)
Time used: 120.1 secs.  Memory used: 35.5 Mb.
+964054: mip =   3.620000000e+02 >=   3.320000000e+02   8.3% (4365; 3092)
+1004633: mip =   3.620000000e+02 >=   3.320000000e+02   8.3% (4400; 3208)
+1044961: mip =   3.620000000e+02 >=   3.320000000e+02   8.3% (4449; 3376)
+1084508: mip =   3.620000000e+02 >=   3.320000000e+02   8.3% (4466; 3550)
+1124420: mip =   3.620000000e+02 >=   3.320000000e+02   8.3% (4506; 3668)
+1165061: mip =   3.620000000e+02 >=   3.320000000e+02   8.3% (4579; 3824)
+1205332: mip =   3.620000000e+02 >=   3.320000000e+02   8.3% (4631; 3979)
+1245393: mip =   3.620000000e+02 >=   3.320000000e+02   8.3% (4681; 4144)
+1285845: mip =   3.620000000e+02 >=   3.320000000e+02   8.3% (4737; 4283)
+1325244: mip =   3.620000000e+02 >=   3.320000000e+02   8.3% (4826; 4415)
+1364628: mip =   3.620000000e+02 >=   3.320000000e+02   8.3% (4952; 4592)
+1406314: mip =   3.620000000e+02 >=   3.330000000e+02   8.0% (4937; 4783)
Time used: 180.1 secs.  Memory used: 44.5 Mb.
+1448308: mip =   3.620000000e+02 >=   3.330000000e+02   8.0% (4957; 4908)
+1490794: mip =   3.620000000e+02 >=   3.330000000e+02   8.0% (4967; 5036)
+1531833: mip =   3.620000000e+02 >=   3.330000000e+02   8.0% (4967; 5189)
+1571523: mip =   3.620000000e+02 >=   3.330000000e+02   8.0% (4954; 5370)
+1611452: mip =   3.620000000e+02 >=   3.340000000e+02   7.7% (4950; 5605)
+1650692: mip =   3.620000000e+02 >=   3.340000000e+02   7.7% (4911; 5859)
+1690459: mip =   3.620000000e+02 >=   3.340000000e+02   7.7% (4865; 6131)
+1730684: mip =   3.620000000e+02 >=   3.350000000e+02   7.5% (4943; 6324)
+1765444: mip =   3.620000000e+02 >=   3.360000000e+02   7.2% (4700; 7330)
+1803243: mip =   3.620000000e+02 >=   3.370000000e+02   6.9% (4770; 7946)
+1842666: mip =   3.620000000e+02 >=   3.370000000e+02   6.9% (4869; 8374)
+1881305: mip =   3.620000000e+02 >=   3.370000000e+02   6.9% (4945; 8810)
Time used: 240.1 secs.  Memory used: 55.4 Mb.
+1921338: mip =   3.620000000e+02 >=   3.370000000e+02   6.9% (5018; 9200)
+1960504: mip =   3.620000000e+02 >=   3.380000000e+02   6.6% (5040; 9707)
+2000369: mip =   3.620000000e+02 >=   3.380000000e+02   6.6% (5016; 10249)
+2041669: mip =   3.620000000e+02 >=   3.400000000e+02   6.1% (4792; 11187)
+2079731: mip =   3.620000000e+02 >=   3.400000000e+02   6.1% (4524; 12137)
+2116439: mip =   3.620000000e+02 >=   3.420000000e+02   5.5% (4550; 12961)
+2156568: mip =   3.620000000e+02 >=   3.430000000e+02   5.2% (4385; 13944)
+2195885: mip =   3.620000000e+02 >=   3.450000000e+02   4.7% (4219; 15109)
+2235056: mip =   3.620000000e+02 >=   3.460000000e+02   4.4% (4168; 15747)
+2274861: mip =   3.620000000e+02 >=   3.460000000e+02   4.4% (4311; 16065)
+2313740: mip =   3.620000000e+02 >=   3.460000000e+02   4.4% (4474; 16389)
+2355109: mip =   3.620000000e+02 >=   3.490000000e+02   3.6% (4503; 16964)
Time used: 300.1 secs.  Memory used: 60.0 Mb.
+2392226: mip =   3.620000000e+02 >=   3.490000000e+02   3.6% (4544; 17617)
+2429842: mip =   3.620000000e+02 >=   3.500000000e+02   3.3% (4529; 18469)
+2465572: mip =   3.620000000e+02 >=   3.510000000e+02   3.0% (4527; 19717)
+2501121: mip =   3.620000000e+02 >=   3.510000000e+02   3.0% (4638; 20894)
+2538417: mip =   3.620000000e+02 >=   3.510000000e+02   3.0% (4674; 22039)
+2574358: mip =   3.620000000e+02 >=   3.510000000e+02   3.0% (4694; 23350)
+2609733: mip =   3.620000000e+02 >=   3.510000000e+02   3.0% (4675; 24639)
+2647331: mip =   3.620000000e+02 >=   3.510000000e+02   3.0% (4708; 25696)
+2683964: mip =   3.620000000e+02 >=   3.510000000e+02   3.0% (4715; 26807)
+2721215: mip =   3.620000000e+02 >=   3.510000000e+02   3.0% (4729; 27771)
+2757742: mip =   3.620000000e+02 >=   3.510000000e+02   3.0% (4798; 28885)
+2795160: mip =   3.620000000e+02 >=   3.510000000e+02   3.0% (4785; 30037)
Time used: 360.1 secs.  Memory used: 61.5 Mb.
+2831653: mip =   3.620000000e+02 >=   3.510000000e+02   3.0% (4780; 31235)
+2870165: mip =   3.620000000e+02 >=   3.510000000e+02   3.0% (4820; 31985)
+2909707: mip =   3.620000000e+02 >=   3.510000000e+02   3.0% (4850; 32563)
+2945544: mip =   3.620000000e+02 >=   3.520000000e+02   2.8% (4789; 34166)
+2981773: mip =   3.620000000e+02 >=   3.520000000e+02   2.8% (4670; 35673)
+3018859: mip =   3.620000000e+02 >=   3.530000000e+02   2.5% (4263; 37478)
+3050936: mip =   3.620000000e+02 >=   3.540000000e+02   2.2% (4115; 39489)
+3084973: mip =   3.620000000e+02 >=   3.540000000e+02   2.2% (4332; 40584)
+3120041: mip =   3.620000000e+02 >=   3.540000000e+02   2.2% (4392; 41862)
+3153508: mip =   3.620000000e+02 >=   3.540000000e+02   2.2% (4286; 43553)
+3176109: mip =   3.620000000e+02 >=   3.550000000e+02   1.9% (3654; 46958)
+3198444: mip =   3.620000000e+02 >=   3.550000000e+02   1.9% (3253; 49910)
Time used: 420.1 secs.  Memory used: 63.5 Mb.
+3223459: mip =   3.620000000e+02 >=   3.550000000e+02   1.9% (2996; 52624)
+3251499: mip =   3.620000000e+02 >=   3.550000000e+02   1.9% (2828; 55034)
+3279354: mip =   3.620000000e+02 >=   3.550000000e+02   1.9% (2751; 57355)
+3309316: mip =   3.620000000e+02 >=   3.550000000e+02   1.9% (2676; 59599)
+3339647: mip =   3.620000000e+02 >=   3.550000000e+02   1.9% (2596; 61910)
+3368257: mip =   3.620000000e+02 >=   3.550000000e+02   1.9% (2521; 64303)
+3395620: mip =   3.620000000e+02 >=   3.550000000e+02   1.9% (2453; 66954)
+3431660: mip =   3.620000000e+02 >=   3.550000000e+02   1.9% (2428; 68520)
+3458594: mip =   3.620000000e+02 >=   3.550000000e+02   1.9% (2526; 70642)
+3494178: mip =   3.620000000e+02 >=   3.550000000e+02   1.9% (2553; 71961)
+3526299: mip =   3.620000000e+02 >=   3.570000000e+02   1.4% (1926; 76234)
+3553773: mip =   3.620000000e+02 >=   3.610000000e+02   0.3% (309; 88337)
Time used: 480.1 secs.  Memory used: 63.5 Mb.
+3587649: mip =   3.620000000e+02 >=     tree is empty   0.0% (0; 91053)
INTEGER OPTIMAL SOLUTION FOUND
Time used:   482.9 secs
Memory used: 64.0 Mb (67151252 bytes)
Writing MIP solution to 'solutions/new_tr/triang7_0_up_right_input.lp'...
